(declare-const |K:28| Int)
(declare-const |x':25| Int)
(assert (and (or (not (<= (- |K:28|) 0))
                   (= (+ |x':25| (* 2 |K:28|) -268435440) 0))
               (or (and (= |K:28| 0) (= (+ (- |x':25|) 268435440) 0))
                     (and (<= (+ (- |K:28|) 1) 0) (<= (+ (- |x':25|) -1) 0)))
               (<= (- |K:28|) 0) (<= |x':25| 0) (not (= (mod |x':25| 2) 0))))
(check-sat)
